\ This file has been generated by DOcplex
\ ENCODING=ISO-8859-1
\Problem name: Assignment

Minimize
 obj: 16 x_0 + 19 x_1 + 9 x_2 + 4 x_3 + 7 x_4 + 15 x_5 + 7 x_6 + 11 x_7 + 13 x_8
      + 7 x_9 + 9 x_10 + 6 x_11 + 8 x_12 + 11 x_13 + 10 x_14 + 12 x_15 + 12 x_16
      + 16 x_17 + 14 x_18 + 5 x_19 + 10 x_20 + 11 x_21 + 11 x_22 + 18 x_23
      + 12 x_24 + 5 x_25 + 9 x_26 + 13 x_27 + 17 x_28 + 12 x_29 + 13 x_30
      + 8 x_31 + 7 x_32 + 4 x_33 + 7 x_34 + 9 x_35 + 18 x_36 + 19 x_37 + 19 x_38
      + 4 x_39 + 6 x_40 + 7 x_41 + 12 x_42 + 5 x_43 + 7 x_44 + 17 x_45 + 7 x_46
      + 7 x_47 + 18 x_48 + 11 x_49 + 4 x_50 + 5 x_51 + 13 x_52 + 13 x_53
      + 19 x_54 + 4 x_55 + 19 x_56 + 14 x_57 + 8 x_58 + 11 x_59 + 7 x_60
      + 18 x_61 + 15 x_62 + 6 x_63 + 11 x_64 + 16 x_65 + 6 x_66 + 4 x_67
      + 4 x_68 + 8 x_69 + 9 x_70 + 9 x_71 + 10 x_72 + 12 x_73 + 8 x_74 + 5 x_75
      + 19 x_76 + 8 x_77 + 13 x_78 + 14 x_79 + 14 x_80 + 19 x_81 + 12 x_82
      + 5 x_83 + 5 x_84 + 11 x_85 + 13 x_86 + 13 x_87 + 7 x_88 + 10 x_89
      + 11 x_90 + 15 x_91 + 18 x_92 + 6 x_93 + 15 x_94 + 4 x_95 + 18 x_96
      + 7 x_97 + 9 x_98 + 16 x_99 + 13 x_100 + 14 x_101 + 8 x_102 + 15 x_103
      + 8 x_104 + 10 x_105 + 8 x_106 + 19 x_107 + 19 x_108 + 8 x_109 + 7 x_110
      + 16 x_111 + 8 x_112 + 8 x_113 + 12 x_114 + 18 x_115 + 19 x_116 + 8 x_117
      + 7 x_118 + 14 x_119 + 11 x_120 + 19 x_121 + 17 x_122 + 9 x_123 + 9 x_124
      + 4 x_125 + 5 x_126 + 9 x_127 + 13 x_128 + 7 x_129 + 4 x_130 + 19 x_131
      + 9 x_132 + 18 x_133 + 4 x_134 + 5 x_135 + 6 x_136 + 8 x_137 + 6 x_138
      + 4 x_139 + 17 x_140 + 7 x_141 + 6 x_142 + 14 x_143 + 17 x_144 + 4 x_145
      + 11 x_146 + 9 x_147 + 13 x_148 + 19 x_149
Subject To
 c1: x_0 + x_1 + x_2 + x_3 + x_4 + x_5 + x_6 + x_7 + x_8 + x_9 + x_10 + x_11
     + x_12 + x_13 + x_14 + x_15 + x_16 + x_17 + x_18 + x_19 + x_20 + x_21
     + x_22 + x_23 + x_24 + x_25 + x_26 + x_27 + x_28 + x_29 + x_30 + x_31
     + x_32 + x_33 + x_34 + x_35 + x_36 + x_37 + x_38 + x_39 + x_40 + x_41
     + x_42 + x_43 + x_44 + x_45 + x_46 + x_47 + x_48 + x_49 = 1
 c2: x_50 + x_51 + x_52 + x_53 + x_54 + x_55 + x_56 + x_57 + x_58 + x_59 + x_60
     + x_61 + x_62 + x_63 + x_64 + x_65 + x_66 + x_67 + x_68 + x_69 + x_70
     + x_71 + x_72 + x_73 + x_74 + x_75 + x_76 + x_77 + x_78 + x_79 + x_80
     + x_81 + x_82 + x_83 + x_84 + x_85 + x_86 + x_87 + x_88 + x_89 + x_90
     + x_91 + x_92 + x_93 + x_94 + x_95 + x_96 + x_97 + x_98 + x_99 = 1
 c3: x_100 + x_101 + x_102 + x_103 + x_104 + x_105 + x_106 + x_107 + x_108
     + x_109 + x_110 + x_111 + x_112 + x_113 + x_114 + x_115 + x_116 + x_117
     + x_118 + x_119 + x_120 + x_121 + x_122 + x_123 + x_124 + x_125 + x_126
     + x_127 + x_128 + x_129 + x_130 + x_131 + x_132 + x_133 + x_134 + x_135
     + x_136 + x_137 + x_138 + x_139 + x_140 + x_141 + x_142 + x_143 + x_144
     + x_145 + x_146 + x_147 + x_148 + x_149 = 1

Bounds
 0 <= x_0 <= 1
 0 <= x_1 <= 1
 0 <= x_2 <= 1
 0 <= x_3 <= 1
 0 <= x_4 <= 1
 0 <= x_5 <= 1
 0 <= x_6 <= 1
 0 <= x_7 <= 1
 0 <= x_8 <= 1
 0 <= x_9 <= 1
 0 <= x_10 <= 1
 0 <= x_11 <= 1
 0 <= x_12 <= 1
 0 <= x_13 <= 1
 0 <= x_14 <= 1
 0 <= x_15 <= 1
 0 <= x_16 <= 1
 0 <= x_17 <= 1
 0 <= x_18 <= 1
 0 <= x_19 <= 1
 0 <= x_20 <= 1
 0 <= x_21 <= 1
 0 <= x_22 <= 1
 0 <= x_23 <= 1
 0 <= x_24 <= 1
 0 <= x_25 <= 1
 0 <= x_26 <= 1
 0 <= x_27 <= 1
 0 <= x_28 <= 1
 0 <= x_29 <= 1
 0 <= x_30 <= 1
 0 <= x_31 <= 1
 0 <= x_32 <= 1
 0 <= x_33 <= 1
 0 <= x_34 <= 1
 0 <= x_35 <= 1
 0 <= x_36 <= 1
 0 <= x_37 <= 1
 0 <= x_38 <= 1
 0 <= x_39 <= 1
 0 <= x_40 <= 1
 0 <= x_41 <= 1
 0 <= x_42 <= 1
 0 <= x_43 <= 1
 0 <= x_44 <= 1
 0 <= x_45 <= 1
 0 <= x_46 <= 1
 0 <= x_47 <= 1
 0 <= x_48 <= 1
 0 <= x_49 <= 1
 0 <= x_50 <= 1
 0 <= x_51 <= 1
 0 <= x_52 <= 1
 0 <= x_53 <= 1
 0 <= x_54 <= 1
 0 <= x_55 <= 1
 0 <= x_56 <= 1
 0 <= x_57 <= 1
 0 <= x_58 <= 1
 0 <= x_59 <= 1
 0 <= x_60 <= 1
 0 <= x_61 <= 1
 0 <= x_62 <= 1
 0 <= x_63 <= 1
 0 <= x_64 <= 1
 0 <= x_65 <= 1
 0 <= x_66 <= 1
 0 <= x_67 <= 1
 0 <= x_68 <= 1
 0 <= x_69 <= 1
 0 <= x_70 <= 1
 0 <= x_71 <= 1
 0 <= x_72 <= 1
 0 <= x_73 <= 1
 0 <= x_74 <= 1
 0 <= x_75 <= 1
 0 <= x_76 <= 1
 0 <= x_77 <= 1
 0 <= x_78 <= 1
 0 <= x_79 <= 1
 0 <= x_80 <= 1
 0 <= x_81 <= 1
 0 <= x_82 <= 1
 0 <= x_83 <= 1
 0 <= x_84 <= 1
 0 <= x_85 <= 1
 0 <= x_86 <= 1
 0 <= x_87 <= 1
 0 <= x_88 <= 1
 0 <= x_89 <= 1
 0 <= x_90 <= 1
 0 <= x_91 <= 1
 0 <= x_92 <= 1
 0 <= x_93 <= 1
 0 <= x_94 <= 1
 0 <= x_95 <= 1
 0 <= x_96 <= 1
 0 <= x_97 <= 1
 0 <= x_98 <= 1
 0 <= x_99 <= 1
 0 <= x_100 <= 1
 0 <= x_101 <= 1
 0 <= x_102 <= 1
 0 <= x_103 <= 1
 0 <= x_104 <= 1
 0 <= x_105 <= 1
 0 <= x_106 <= 1
 0 <= x_107 <= 1
 0 <= x_108 <= 1
 0 <= x_109 <= 1
 0 <= x_110 <= 1
 0 <= x_111 <= 1
 0 <= x_112 <= 1
 0 <= x_113 <= 1
 0 <= x_114 <= 1
 0 <= x_115 <= 1
 0 <= x_116 <= 1
 0 <= x_117 <= 1
 0 <= x_118 <= 1
 0 <= x_119 <= 1
 0 <= x_120 <= 1
 0 <= x_121 <= 1
 0 <= x_122 <= 1
 0 <= x_123 <= 1
 0 <= x_124 <= 1
 0 <= x_125 <= 1
 0 <= x_126 <= 1
 0 <= x_127 <= 1
 0 <= x_128 <= 1
 0 <= x_129 <= 1
 0 <= x_130 <= 1
 0 <= x_131 <= 1
 0 <= x_132 <= 1
 0 <= x_133 <= 1
 0 <= x_134 <= 1
 0 <= x_135 <= 1
 0 <= x_136 <= 1
 0 <= x_137 <= 1
 0 <= x_138 <= 1
 0 <= x_139 <= 1
 0 <= x_140 <= 1
 0 <= x_141 <= 1
 0 <= x_142 <= 1
 0 <= x_143 <= 1
 0 <= x_144 <= 1
 0 <= x_145 <= 1
 0 <= x_146 <= 1
 0 <= x_147 <= 1
 0 <= x_148 <= 1
 0 <= x_149 <= 1

Binaries
 x_0 x_1 x_2 x_3 x_4 x_5 x_6 x_7 x_8 x_9 x_10 x_11 x_12 x_13 x_14 x_15 x_16 x_17
 x_18 x_19 x_20 x_21 x_22 x_23 x_24 x_25 x_26 x_27 x_28 x_29 x_30 x_31 x_32 x_33
 x_34 x_35 x_36 x_37 x_38 x_39 x_40 x_41 x_42 x_43 x_44 x_45 x_46 x_47 x_48 x_49
 x_50 x_51 x_52 x_53 x_54 x_55 x_56 x_57 x_58 x_59 x_60 x_61 x_62 x_63 x_64 x_65
 x_66 x_67 x_68 x_69 x_70 x_71 x_72 x_73 x_74 x_75 x_76 x_77 x_78 x_79 x_80 x_81
 x_82 x_83 x_84 x_85 x_86 x_87 x_88 x_89 x_90 x_91 x_92 x_93 x_94 x_95 x_96 x_97
 x_98 x_99 x_100 x_101 x_102 x_103 x_104 x_105 x_106 x_107 x_108 x_109 x_110
 x_111 x_112 x_113 x_114 x_115 x_116 x_117 x_118 x_119 x_120 x_121 x_122 x_123
 x_124 x_125 x_126 x_127 x_128 x_129 x_130 x_131 x_132 x_133 x_134 x_135 x_136
 x_137 x_138 x_139 x_140 x_141 x_142 x_143 x_144 x_145 x_146 x_147 x_148 x_149
End
